(set-logic ALL)
(set-option :produce-models true)
(declare-sort BoundSet 0)
(declare-sort UnboundSet 0)
(set-option :finite-model-find true)
(declare-fun IsBarelyScratching (BoundSet) Bool)
(declare-fun ArePossible (BoundSet) Bool)
(declare-fun IsExperiencing (BoundSet) Bool)
(assert (not (=> (exists ((a BoundSet)) (exists ((b BoundSet)) (and (IsBarelyScratching a) (ArePossible b)))) (exists ((c BoundSet)) (IsExperiencing c)))))
(check-sat)
(get-model)